(set-logic ALL)
(set-option :produce-models true)
(declare-sort BoundSet 0)
(declare-sort UnboundSet 0)
(set-option :finite-model-find true)
(declare-fun IsInBlack (BoundSet) Bool)
(declare-fun ReviewsMessage (BoundSet) Bool)
(declare-fun HasJob (BoundSet) Bool)
(assert (not (=> (and (exists ((a BoundSet)) (and (IsInBlack a) (ReviewsMessage a))) (and (forall ((e BoundSet)) (forall ((f BoundSet)) (=> (HasJob e) (IsInBlack f)))) (and (forall ((h BoundSet)) (forall ((g BoundSet)) (=> (ReviewsMessage g) (IsInBlack h)))) (and (forall ((i BoundSet)) (forall ((j BoundSet)) (=> (IsInBlack i) (ReviewsMessage j)))) (forall ((l BoundSet)) (forall ((k BoundSet)) (=> (HasJob k) (ReviewsMessage l)))))))) (exists ((c BoundSet)) (and (IsInBlack c) (HasJob c))))))
(check-sat)
(get-model)